p cnf 36 54
-3 -4 0
-3 -5 0
-4 -5 0
-1 -2 0
1 2 0
-2 -5 0
-1 -4 0
-5 1 0
-4 2 0
-15 -16 0
-15 -17 0
-16 -17 0
-13 -14 0
13 14 0
-14 -17 0
-13 -16 0
-17 13 0
-16 14 0
-27 -28 0
-27 -29 0
-28 -29 0
-25 -26 0
25 26 0
-26 -29 0
-25 -28 0
-29 25 0
-28 26 0
-9 -10 0
-9 -11 0
-10 -11 0
-7 -8 0
7 8 0
-8 -11 0
-7 -10 0
-11 7 0
-10 8 0
-21 -22 0
-21 -23 0
-22 -23 0
-19 -20 0
19 20 0
-20 -23 0
-19 -22 0
-23 19 0
-22 20 0
-33 -34 0
-33 -35 0
-34 -35 0
-31 -32 0
31 32 0
-32 -35 0
-31 -34 0
-35 31 0
-34 32 0
